p wcnf 19 28 15
c ===== Hard Clauses =====
15 3 4 6 0
15 -3 -4 7 0
15 1 4 8 0
15 -1 -4 9 0
15 2 3 10 0
15 -2 -3 11 0
15 1 2 12 0
15 -1 -2 13 0
15 4 5 14 0
15 -4 -5 15 0
15 1 5 16 0
15 -1 -5 17 0
15 1 3 18 0
15 -1 -3 19 0
c ===== Soft Clauses (Sum weights: 14) =====
1 -6 0
1 -7 0
1 -8 0
1 -9 0
1 -10 0
1 -11 0
1 -12 0
1 -13 0
1 -14 0
1 -15 0
1 -16 0
1 -17 0
1 -18 0
1 -19 0
